SAT problem/sat_in/bonus/08.wcnf
p wcnf 5 12 26
26 1 2 0
26 1 4 0
26 1 5 0
26 2 3 0
26 2 4 0
26 2 5 0
26 4 5 0
4 -1 0
3 -2 0
6 -3 0
4 -4 0
4 -5 0
